0 5149.79
1 5102.57
2 5102.57
3 5087.49
4 4997.08
5 4913.00
6 4913.00
7 4913.00
8 4913.00
9 4913.00
10 4913.00
11 4913.00
12 4913.00
13 4913.00
14 4913.00
15 4913.00
16 4913.00
17 4913.00
18 4913.00
19 4913.00
20 4908.02
21 4908.02
22 4908.02
23 4906.17
24 4906.17
25 4906.17
26 4906.17
27 4906.17
28 4906.17
29 4906.17
30 4906.17
31 4902.41
32 4902.41
33 4902.41
34 4902.41
35 4902.41
36 4896.72
37 4896.72
38 4896.72
39 4896.72
40 4896.72
41 4896.72
42 4896.72
43 4896.72
44 4896.72
45 4896.72
46 4896.72
47 4896.72
48 4866.94
49 4866.94
50 4866.94
51 4866.94
52 4866.94
53 4866.94
54 4866.94
55 4866.94
56 4866.94
57 4866.94
58 4866.94
59 4866.94
60 4866.94
61 4866.94
62 4866.94
63 4866.94
64 4866.94
65 4863.30
66 4863.30
67 4863.30
68 4863.30
69 4863.30
70 4863.30
71 4863.30
72 4863.30
73 4863.17
74 4863.17
75 4863.17
76 4863.17
77 4863.17
78 4863.17
79 4863.17
80 4863.17
81 4863.17
82 4862.58
83 4862.58
84 4862.58
85 4862.58
86 4862.58
87 4862.58
88 4858.25
89 4858.25
90 4858.25
91 4823.70
92 4823.70
93 4823.70
94 4823.70
95 4823.70
96 4823.70
97 4818.50
98 4818.50
99 4818.50
100 4818.50
101 4818.50
102 4818.50
103 4818.50
104 4818.50
105 4818.50
106 4818.50
107 4811.97
108 4811.97
109 4811.97
110 4811.97
111 4811.97
112 4811.97
113 4811.97
114 4811.97
115 4811.97
116 4811.97
117 4811.97
118 4811.97
119 4811.97
120 4811.97
121 4811.97
122 4811.97
123 4811.97
124 4811.97
125 4811.97
126 4811.97
127 4811.97
128 4811.97
129 4811.97
130 4811.97
131 4811.97
132 4811.97
133 4811.97
134 4811.97
135 4811.97
136 4811.97
137 4811.97
138 4811.97
139 4811.97
140 4811.97
141 4811.97
142 4811.97
143 4811.97
144 4811.97
145 4811.97
146 4811.97
147 4811.97
148 4811.97
149 4811.97
150 4811.97
151 4811.97
152 4811.97
153 4811.97
154 4811.97
155 4811.97
156 4811.97
157 4811.97
158 4811.97
159 4811.97
160 4811.97
161 4811.97
162 4811.97
163 4811.97
164 4808.53
165 4808.53
166 4808.53
167 4808.53
168 4808.53
169 4808.53
170 4808.53
171 4808.53
172 4808.53
173 4808.53
174 4808.53
175 4808.53
176 4808.53
177 4808.53
178 4808.53
179 4808.53
180 4808.53
181 4808.53
182 4808.53
183 4808.53
184 4808.53
185 4808.53
186 4808.53
187 4808.53
188 4808.53
189 4808.53
190 4808.53
191 4808.53
192 4808.53
193 4808.53
194 4808.53
195 4808.53
196 4808.53
197 4808.53
198 4808.53
199 4808.53
200 4808.53
201 4808.53
202 4808.53
203 4801.80
204 4801.80
205 4801.80
206 4801.80
207 4801.80
208 4801.80
209 4801.80
210 4801.80
211 4801.80
212 4801.80
213 4801.80
214 4801.80
215 4801.80
216 4801.80
217 4801.80
218 4801.80
219 4801.80
220 4801.80
221 4801.80
222 4801.80
223 4801.80
224 4801.80
225 4801.80
226 4801.80
227 4801.80
228 4801.80
229 4801.16
230 4801.16
231 4801.16
232 4801.16
233 4801.16
234 4801.16
235 4801.16
236 4801.16
237 4801.16
238 4801.16
239 4801.16
240 4801.16
241 4801.16
242 4801.16
243 4801.16
244 4801.16
245 4801.16
246 4801.16
247 4801.16
248 4801.16
249 4801.16
250 4801.16
251 4801.16
252 4801.16
253 4801.16
254 4801.16
255 4801.16
256 4801.16
257 4801.16
258 4801.16
259 4801.16
260 4801.16
261 4801.16
262 4801.16
263 4801.16
264 4801.16
265 4801.16
266 4801.16
267 4801.16
268 4801.16
269 4801.16
270 4801.16
271 4801.16
272 4801.16
273 4801.16
274 4801.16
275 4801.16
276 4801.16
277 4801.16
278 4801.16
279 4801.16
280 4801.16
281 4801.16
282 4801.16
283 4801.16
284 4801.16
285 4801.16
286 4801.16
287 4801.16
288 4801.16
289 4801.16
290 4801.16
291 4801.16
292 4801.16
293 4801.16
294 4801.16
295 4801.16
296 4801.16
297 4801.16
298 4801.16
299 4801.16
300 4801.16
301 4801.16
302 4801.16
303 4801.16
304 4801.16
305 4801.16
306 4801.16
307 4801.16
308 4801.16
309 4801.16
310 4801.16
311 4801.16
312 4801.16
313 4801.16
314 4801.16
315 4801.16
316 4801.16
317 4801.16
318 4801.16
319 4801.16
320 4801.16
321 4801.16
322 4801.16
323 4801.16
324 4801.16
325 4801.16
326 4801.16
327 4801.16
328 4801.16
329 4801.16
330 4801.16
331 4801.16
332 4801.16
333 4801.16
334 4801.16
335 4801.16
336 4791.78
337 4791.78
338 4791.78
339 4791.78
340 4791.78
341 4791.78
342 4791.78
343 4791.78
344 4791.78
345 4791.78
346 4791.78
347 4791.78
348 4791.78
349 4791.78
350 4791.78
351 4791.78
352 4791.78
353 4791.78
354 4791.78
355 4791.78
356 4791.78
357 4791.78
358 4791.78
359 4791.78
360 4791.78
361 4791.78
362 4791.78
363 4791.78
364 4791.78
365 4791.78
366 4791.78
367 4791.78
368 4791.78
369 4791.78
370 4791.78
371 4789.07
372 4789.07
373 4789.07
374 4789.07
375 4789.07
376 4789.07
377 4782.29
378 4782.29
379 4782.29
380 4782.29
381 4782.29
382 4782.29
383 4782.29
384 4782.29
385 4782.29
386 4782.29
387 4782.29
388 4782.29
389 4782.29
390 4782.29
391 4782.29
392 4782.29
393 4782.29
394 4782.29
395 4782.29
396 4782.29
397 4782.29
398 4782.29
399 4782.29
400 4782.29
401 4782.29
402 4782.29
403 4782.29
404 4782.29
405 4782.29
406 4782.29
407 4782.29
408 4782.29
409 4782.29
410 4782.29
411 4782.29
412 4782.29
413 4782.29
414 4782.29
415 4782.29
416 4782.29
417 4782.29
418 4782.29
419 4782.29
420 4782.29
421 4782.29
422 4782.29
423 4782.29
424 4782.29
425 4782.29
426 4782.29
427 4782.29
428 4782.29
429 4782.29
430 4782.29
431 4782.29
432 4782.29
433 4782.29
434 4782.29
435 4782.29
436 4782.29
437 4782.29
438 4782.29
439 4782.29
440 4782.29
441 4782.29
442 4782.29
443 4782.29
444 4782.29
445 4782.29
446 4782.29
447 4782.29
448 4782.29
449 4782.29
450 4782.29
451 4782.29
452 4782.29
453 4782.29
454 4782.29
455 4782.29
456 4782.29
457 4782.29
458 4782.29
459 4782.29
460 4782.29
461 4773.72
462 4773.72
463 4773.72
464 4773.72
465 4773.72
466 4773.72
467 4773.72
468 4773.72
469 4773.72
470 4773.72
471 4773.72
472 4773.72
473 4773.72
474 4773.72
475 4773.72
476 4773.72
477 4773.72
478 4773.72
479 4773.72
480 4773.72
481 4773.72
482 4773.72
483 4773.72
484 4773.72
485 4773.72
486 4773.72
487 4773.72
488 4773.72
489 4773.72
490 4773.72
491 4773.72
492 4773.72
493 4773.72
494 4773.72
495 4773.72
496 4773.72
497 4773.72
498 4773.72
499 4773.72
2 6 8 4 0 0 